905113
90,34,71,54,98,23,11,28,46,67,61,58,82,16,15,83,88,42,97,35,27,2,3,64,5,85,89,8,53,91,44,55,72,99,36,50,38,76,87,48,80,68,13,63,93,49,62,31,60,10,56,18,69,75,6,41,77,30,96,21,20,32,70,74,37,1,9,33,57,47,95,66,4,45,86,81,14,39,92,7,73,22,84,65,52,43,24,78,25,51,79,29,40,94,26,17,12,19,59